$instance size is  1000
letting capacity be  252984
letting items be new type enum { 
a1,a2,a3,a4,a5,a6,a7,a8,a9,a10,a11,a12,a13,a14,a15,a16,a17,a18,a19,a20,a21,a22,a23,a24,a25,a26,a27,a28,a29,a30,a31,a32,a33,a34,a35,a36,a37,a38,a39,a40,a41,a42,a43,a44,a45,a46,a47,a48,a49,a50,a51,a52,a53,a54,a55,a56,a57,a58,a59,a60,a61,a62,a63,a64,a65,a66,a67,a68,a69,a70,a71,a72,a73,a74,a75,a76,a77,a78,a79,a80,a81,a82,a83,a84,a85,a86,a87,a88,a89,a90,a91,a92,a93,a94,a95,a96,a97,a98,a99,a100,a101,a102,a103,a104,a105,a106,a107,a108,a109,a110,a111,a112,a113,a114,a115,a116,a117,a118,a119,a120,a121,a122,a123,a124,a125,a126,a127,a128,a129,a130,a131,a132,a133,a134,a135,a136,a137,a138,a139,a140,a141,a142,a143,a144,a145,a146,a147,a148,a149,a150,a151,a152,a153,a154,a155,a156,a157,a158,a159,a160,a161,a162,a163,a164,a165,a166,a167,a168,a169,a170,a171,a172,a173,a174,a175,a176,a177,a178,a179,a180,a181,a182,a183,a184,a185,a186,a187,a188,a189,a190,a191,a192,a193,a194,a195,a196,a197,a198,a199,a200,a201,a202,a203,a204,a205,a206,a207,a208,a209,a210,a211,a212,a213,a214,a215,a216,a217,a218,a219,a220,a221,a222,a223,a224,a225,a226,a227,a228,a229,a230,a231,a232,a233,a234,a235,a236,a237,a238,a239,a240,a241,a242,a243,a244,a245,a246,a247,a248,a249,a250,a251,a252,a253,a254,a255,a256,a257,a258,a259,a260,a261,a262,a263,a264,a265,a266,a267,a268,a269,a270,a271,a272,a273,a274,a275,a276,a277,a278,a279,a280,a281,a282,a283,a284,a285,a286,a287,a288,a289,a290,a291,a292,a293,a294,a295,a296,a297,a298,a299,a300,a301,a302,a303,a304,a305,a306,a307,a308,a309,a310,a311,a312,a313,a314,a315,a316,a317,a318,a319,a320,a321,a322,a323,a324,a325,a326,a327,a328,a329,a330,a331,a332,a333,a334,a335,a336,a337,a338,a339,a340,a341,a342,a343,a344,a345,a346,a347,a348,a349,a350,a351,a352,a353,a354,a355,a356,a357,a358,a359,a360,a361,a362,a363,a364,a365,a366,a367,a368,a369,a370,a371,a372,a373,a374,a375,a376,a377,a378,a379,a380,a381,a382,a383,a384,a385,a386,a387,a388,a389,a390,a391,a392,a393,a394,a395,a396,a397,a398,a399,a400,a401,a402,a403,a404,a405,a406,a407,a408,a409,a410,a411,a412,a413,a414,a415,a416,a417,a418,a419,a420,a421,a422,a423,a424,a425,a426,a427,a428,a429,a430,a431,a432,a433,a434,a435,a436,a437,a438,a439,a440,a441,a442,a443,a444,a445,a446,a447,a448,a449,a450,a451,a452,a453,a454,a455,a456,a457,a458,a459,a460,a461,a462,a463,a464,a465,a466,a467,a468,a469,a470,a471,a472,a473,a474,a475,a476,a477,a478,a479,a480,a481,a482,a483,a484,a485,a486,a487,a488,a489,a490,a491,a492,a493,a494,a495,a496,a497,a498,a499,a500,a501,a502,a503,a504,a505,a506,a507,a508,a509,a510,a511,a512,a513,a514,a515,a516,a517,a518,a519,a520,a521,a522,a523,a524,a525,a526,a527,a528,a529,a530,a531,a532,a533,a534,a535,a536,a537,a538,a539,a540,a541,a542,a543,a544,a545,a546,a547,a548,a549,a550,a551,a552,a553,a554,a555,a556,a557,a558,a559,a560,a561,a562,a563,a564,a565,a566,a567,a568,a569,a570,a571,a572,a573,a574,a575,a576,a577,a578,a579,a580,a581,a582,a583,a584,a585,a586,a587,a588,a589,a590,a591,a592,a593,a594,a595,a596,a597,a598,a599,a600,a601,a602,a603,a604,a605,a606,a607,a608,a609,a610,a611,a612,a613,a614,a615,a616,a617,a618,a619,a620,a621,a622,a623,a624,a625,a626,a627,a628,a629,a630,a631,a632,a633,a634,a635,a636,a637,a638,a639,a640,a641,a642,a643,a644,a645,a646,a647,a648,a649,a650,a651,a652,a653,a654,a655,a656,a657,a658,a659,a660,a661,a662,a663,a664,a665,a666,a667,a668,a669,a670,a671,a672,a673,a674,a675,a676,a677,a678,a679,a680,a681,a682,a683,a684,a685,a686,a687,a688,a689,a690,a691,a692,a693,a694,a695,a696,a697,a698,a699,a700,a701,a702,a703,a704,a705,a706,a707,a708,a709,a710,a711,a712,a713,a714,a715,a716,a717,a718,a719,a720,a721,a722,a723,a724,a725,a726,a727,a728,a729,a730,a731,a732,a733,a734,a735,a736,a737,a738,a739,a740,a741,a742,a743,a744,a745,a746,a747,a748,a749,a750,a751,a752,a753,a754,a755,a756,a757,a758,a759,a760,a761,a762,a763,a764,a765,a766,a767,a768,a769,a770,a771,a772,a773,a774,a775,a776,a777,a778,a779,a780,a781,a782,a783,a784,a785,a786,a787,a788,a789,a790,a791,a792,a793,a794,a795,a796,a797,a798,a799,a800,a801,a802,a803,a804,a805,a806,a807,a808,a809,a810,a811,a812,a813,a814,a815,a816,a817,a818,a819,a820,a821,a822,a823,a824,a825,a826,a827,a828,a829,a830,a831,a832,a833,a834,a835,a836,a837,a838,a839,a840,a841,a842,a843,a844,a845,a846,a847,a848,a849,a850,a851,a852,a853,a854,a855,a856,a857,a858,a859,a860,a861,a862,a863,a864,a865,a866,a867,a868,a869,a870,a871,a872,a873,a874,a875,a876,a877,a878,a879,a880,a881,a882,a883,a884,a885,a886,a887,a888,a889,a890,a891,a892,a893,a894,a895,a896,a897,a898,a899,a900,a901,a902,a903,a904,a905,a906,a907,a908,a909,a910,a911,a912,a913,a914,a915,a916,a917,a918,a919,a920,a921,a922,a923,a924,a925,a926,a927,a928,a929,a930,a931,a932,a933,a934,a935,a936,a937,a938,a939,a940,a941,a942,a943,a944,a945,a946,a947,a948,a949,a950,a951,a952,a953,a954,a955,a956,a957,a958,a959,a960,a961,a962,a963,a964,a965,a966,a967,a968,a969,a970,a971,a972,a973,a974,a975,a976,a977,a978,a979,a980,a981,a982,a983,a984,a985,a986,a987,a988,a989,a990,a991,a992,a993,a994,a995,a996,a997,a998,a999,a1000
}
letting weight be function (
a1 --> 586,a2 --> 915,a3 --> 156,a4 --> 272,a5 --> 278,a6 --> 629,a7 --> 198,a8 --> 632,a9 --> 435,a10 --> 991,a11 --> 971,a12 --> 15,a13 --> 383,a14 --> 822,a15 --> 83,a16 --> 640,a17 --> 170,a18 --> 470,a19 --> 687,a20 --> 6,a21 --> 286,a22 --> 347,a23 --> 472,a24 --> 564,a25 --> 693,a26 --> 483,a27 --> 404,a28 --> 532,a29 --> 294,a30 --> 917,a31 --> 377,a32 --> 716,a33 --> 80,a34 --> 931,a35 --> 600,a36 --> 217,a37 --> 205,a38 --> 979,a39 --> 683,a40 --> 904,a41 --> 568,a42 --> 986,a43 --> 134,a44 --> 503,a45 --> 63,a46 --> 927,a47 --> 865,a48 --> 913,a49 --> 185,a50 --> 30,a51 --> 939,a52 --> 479,a53 --> 215,a54 --> 409,a55 --> 1000,a56 --> 494,a57 --> 423,a58 --> 560,a59 --> 92,a60 --> 199,a61 --> 420,a62 --> 698,a63 --> 278,a64 --> 394,a65 --> 623,a66 --> 729,a67 --> 309,a68 --> 874,a69 --> 865,a70 --> 538,a71 --> 877,a72 --> 307,a73 --> 285,a74 --> 474,a75 --> 171,a76 --> 390,a77 --> 338,a78 --> 9,a79 --> 20,a80 --> 884,a81 --> 271,a82 --> 754,a83 --> 402,a84 --> 702,a85 --> 925,a86 --> 25,a87 --> 686,a88 --> 547,a89 --> 168,a90 --> 259,a91 --> 166,a92 --> 706,a93 --> 590,a94 --> 449,a95 --> 184,a96 --> 147,a97 --> 781,a98 --> 36,a99 --> 165,a100 --> 361,a101 --> 153,a102 --> 226,a103 --> 807,a104 --> 666,a105 --> 859,a106 --> 767,a107 --> 978,a108 --> 13,a109 --> 698,a110 --> 869,a111 --> 998,a112 --> 770,a113 --> 174,a114 --> 780,a115 --> 434,a116 --> 149,a117 --> 71,a118 --> 89,a119 --> 466,a120 --> 131,a121 --> 546,a122 --> 699,a123 --> 610,a124 --> 587,a125 --> 236,a126 --> 881,a127 --> 161,a128 --> 542,a129 --> 116,a130 --> 21,a131 --> 631,a132 --> 607,a133 --> 532,a134 --> 707,a135 --> 510,a136 --> 52,a137 --> 321,a138 --> 482,a139 --> 483,a140 --> 722,a141 --> 230,a142 --> 457,a143 --> 726,a144 --> 76,a145 --> 180,a146 --> 115,a147 --> 213,a148 --> 555,a149 --> 541,a150 --> 419,a151 --> 493,a152 --> 15,a153 --> 996,a154 --> 864,a155 --> 601,a156 --> 580,a157 --> 678,a158 --> 457,a159 --> 400,a160 --> 909,a161 --> 659,a162 --> 354,a163 --> 778,a164 --> 349,a165 --> 93,a166 --> 405,a167 --> 411,a168 --> 616,a169 --> 966,a170 --> 913,a171 --> 511,a172 --> 326,a173 --> 518,a174 --> 798,a175 --> 395,a176 --> 680,a177 --> 243,a178 --> 102,a179 --> 746,a180 --> 617,a181 --> 855,a182 --> 518,a183 --> 477,a184 --> 613,a185 --> 981,a186 --> 378,a187 --> 233,a188 --> 796,a189 --> 308,a190 --> 419,a191 --> 757,a192 --> 64,a193 --> 674,a194 --> 484,a195 --> 984,a196 --> 154,a197 --> 697,a198 --> 968,a199 --> 695,a200 --> 872,a201 --> 956,a202 --> 454,a203 --> 92,a204 --> 666,a205 --> 522,a206 --> 597,a207 --> 231,a208 --> 728,a209 --> 954,a210 --> 743,a211 --> 785,a212 --> 117,a213 --> 349,a214 --> 961,a215 --> 596,a216 --> 783,a217 --> 399,a218 --> 321,a219 --> 940,a220 --> 235,a221 --> 390,a222 --> 719,a223 --> 976,a224 --> 117,a225 --> 961,a226 --> 708,a227 --> 776,a228 --> 78,a229 --> 33,a230 --> 53,a231 --> 256,a232 --> 459,a233 --> 530,a234 --> 976,a235 --> 452,a236 --> 285,a237 --> 299,a238 --> 389,a239 --> 42,a240 --> 539,a241 --> 601,a242 --> 741,a243 --> 130,a244 --> 856,a245 --> 456,a246 --> 526,a247 --> 824,a248 --> 579,a249 --> 305,a250 --> 534,a251 --> 520,a252 --> 26,a253 --> 716,a254 --> 347,a255 --> 753,a256 --> 85,a257 --> 848,a258 --> 616,a259 --> 707,a260 --> 273,a261 --> 237,a262 --> 370,a263 --> 88,a264 --> 194,a265 --> 841,a266 --> 183,a267 --> 846,a268 --> 831,a269 --> 703,a270 --> 733,a271 --> 922,a272 --> 617,a273 --> 320,a274 --> 297,a275 --> 550,a276 --> 195,a277 --> 246,a278 --> 749,a279 --> 259,a280 --> 579,a281 --> 148,a282 --> 607,a283 --> 551,a284 --> 871,a285 --> 695,a286 --> 504,a287 --> 840,a288 --> 113,a289 --> 207,a290 --> 458,a291 --> 967,a292 --> 579,a293 --> 358,a294 --> 593,a295 --> 222,a296 --> 11,a297 --> 47,a298 --> 59,a299 --> 73,a300 --> 607,a301 --> 936,a302 --> 375,a303 --> 928,a304 --> 794,a305 --> 568,a306 --> 569,a307 --> 259,a308 --> 269,a309 --> 593,a310 --> 284,a311 --> 924,a312 --> 222,a313 --> 966,a314 --> 606,a315 --> 944,a316 --> 412,a317 --> 125,a318 --> 215,a319 --> 582,a320 --> 311,a321 --> 734,a322 --> 353,a323 --> 437,a324 --> 140,a325 --> 563,a326 --> 985,a327 --> 178,a328 --> 895,a329 --> 509,a330 --> 212,a331 --> 87,a332 --> 984,a333 --> 124,a334 --> 370,a335 --> 957,a336 --> 62,a337 --> 799,a338 --> 759,a339 --> 778,a340 --> 950,a341 --> 295,a342 --> 940,a343 --> 83,a344 --> 140,a345 --> 505,a346 --> 753,a347 --> 715,a348 --> 495,a349 --> 408,a350 --> 798,a351 --> 841,a352 --> 161,a353 --> 86,a354 --> 125,a355 --> 886,a356 --> 877,a357 --> 75,a358 --> 666,a359 --> 84,a360 --> 887,a361 --> 820,a362 --> 682,a363 --> 679,a364 --> 935,a365 --> 341,a366 --> 719,a367 --> 943,a368 --> 837,a369 --> 471,a370 --> 41,a371 --> 532,a372 --> 830,a373 --> 10,a374 --> 158,a375 --> 648,a376 --> 733,a377 --> 531,a378 --> 106,a379 --> 128,a380 --> 770,a381 --> 551,a382 --> 71,a383 --> 955,a384 --> 414,a385 --> 630,a386 --> 750,a387 --> 489,a388 --> 980,a389 --> 560,a390 --> 180,a391 --> 708,a392 --> 650,a393 --> 227,a394 --> 462,a395 --> 674,a396 --> 925,a397 --> 362,a398 --> 964,a399 --> 160,a400 --> 24,a401 --> 190,a402 --> 713,a403 --> 120,a404 --> 525,a405 --> 497,a406 --> 976,a407 --> 836,a408 --> 785,a409 --> 830,a410 --> 472,a411 --> 696,a412 --> 20,a413 --> 794,a414 --> 401,a415 --> 355,a416 --> 782,a417 --> 109,a418 --> 605,a419 --> 446,a420 --> 563,a421 --> 473,a422 --> 583,a423 --> 290,a424 --> 543,a425 --> 969,a426 --> 942,a427 --> 30,a428 --> 867,a429 --> 803,a430 --> 762,a431 --> 295,a432 --> 45,a433 --> 246,a434 --> 414,a435 --> 558,a436 --> 19,a437 --> 780,a438 --> 284,a439 --> 693,a440 --> 344,a441 --> 993,a442 --> 723,a443 --> 329,a444 --> 989,a445 --> 849,a446 --> 268,a447 --> 881,a448 --> 313,a449 --> 573,a450 --> 792,a451 --> 380,a452 --> 217,a453 --> 790,a454 --> 779,a455 --> 159,a456 --> 368,a457 --> 344,a458 --> 740,a459 --> 509,a460 --> 287,a461 --> 112,a462 --> 194,a463 --> 628,a464 --> 438,a465 --> 582,a466 --> 96,a467 --> 318,a468 --> 144,a469 --> 572,a470 --> 553,a471 --> 524,a472 --> 275,a473 --> 236,a474 --> 20,a475 --> 573,a476 --> 541,a477 --> 756,a478 --> 904,a479 --> 229,a480 --> 200,a481 --> 213,a482 --> 273,a483 --> 542,a484 --> 542,a485 --> 368,a486 --> 545,a487 --> 386,a488 --> 964,a489 --> 919,a490 --> 135,a491 --> 413,a492 --> 3,a493 --> 178,a494 --> 859,a495 --> 583,a496 --> 410,a497 --> 446,a498 --> 311,a499 --> 336,a500 --> 861,a501 --> 903,a502 --> 375,a503 --> 58,a504 --> 961,a505 --> 719,a506 --> 353,a507 --> 42,a508 --> 660,a509 --> 132,a510 --> 325,a511 --> 495,a512 --> 329,a513 --> 61,a514 --> 958,a515 --> 561,a516 --> 994,a517 --> 549,a518 --> 927,a519 --> 874,a520 --> 780,a521 --> 606,a522 --> 607,a523 --> 616,a524 --> 518,a525 --> 495,a526 --> 421,a527 --> 672,a528 --> 553,a529 --> 599,a530 --> 115,a531 --> 988,a532 --> 448,a533 --> 22,a534 --> 670,a535 --> 230,a536 --> 681,a537 --> 482,a538 --> 652,a539 --> 666,a540 --> 435,a541 --> 607,a542 --> 148,a543 --> 743,a544 --> 622,a545 --> 358,a546 --> 961,a547 --> 942,a548 --> 773,a549 --> 55,a550 --> 503,a551 --> 841,a552 --> 998,a553 --> 462,a554 --> 508,a555 --> 181,a556 --> 224,a557 --> 249,a558 --> 472,a559 --> 280,a560 --> 283,a561 --> 783,a562 --> 180,a563 --> 571,a564 --> 19,a565 --> 610,a566 --> 990,a567 --> 880,a568 --> 197,a569 --> 701,a570 --> 795,a571 --> 652,a572 --> 176,a573 --> 255,a574 --> 795,a575 --> 134,a576 --> 757,a577 --> 182,a578 --> 329,a579 --> 886,a580 --> 439,a581 --> 708,a582 --> 952,a583 --> 430,a584 --> 579,a585 --> 989,a586 --> 830,a587 --> 268,a588 --> 273,a589 --> 6,a590 --> 956,a591 --> 485,a592 --> 24,a593 --> 55,a594 --> 467,a595 --> 99,a596 --> 533,a597 --> 738,a598 --> 608,a599 --> 120,a600 --> 892,a601 --> 985,a602 --> 544,a603 --> 960,a604 --> 341,a605 --> 851,a606 --> 788,a607 --> 554,a608 --> 632,a609 --> 535,a610 --> 62,a611 --> 7,a612 --> 497,a613 --> 262,a614 --> 82,a615 --> 425,a616 --> 156,a617 --> 5,a618 --> 237,a619 --> 469,a620 --> 545,a621 --> 624,a622 --> 153,a623 --> 561,a624 --> 120,a625 --> 784,a626 --> 566,a627 --> 614,a628 --> 782,a629 --> 317,a630 --> 346,a631 --> 150,a632 --> 182,a633 --> 213,a634 --> 378,a635 --> 742,a636 --> 713,a637 --> 179,a638 --> 830,a639 --> 221,a640 --> 966,a641 --> 87,a642 --> 264,a643 --> 691,a644 --> 129,a645 --> 428,a646 --> 581,a647 --> 874,a648 --> 8,a649 --> 116,a650 --> 66,a651 --> 56,a652 --> 104,a653 --> 118,a654 --> 927,a655 --> 675,a656 --> 252,a657 --> 209,a658 --> 495,a659 --> 99,a660 --> 934,a661 --> 237,a662 --> 734,a663 --> 690,a664 --> 540,a665 --> 8,a666 --> 953,a667 --> 287,a668 --> 555,a669 --> 303,a670 --> 161,a671 --> 950,a672 --> 583,a673 --> 608,a674 --> 447,a675 --> 873,a676 --> 793,a677 --> 750,a678 --> 977,a679 --> 738,a680 --> 486,a681 --> 468,a682 --> 883,a683 --> 677,a684 --> 991,a685 --> 40,a686 --> 943,a687 --> 619,a688 --> 763,a689 --> 449,a690 --> 917,a691 --> 425,a692 --> 397,a693 --> 874,a694 --> 826,a695 --> 141,a696 --> 428,a697 --> 700,a698 --> 469,a699 --> 281,a700 --> 621,a701 --> 215,a702 --> 637,a703 --> 229,a704 --> 139,a705 --> 777,a706 --> 452,a707 --> 977,a708 --> 944,a709 --> 700,a710 --> 454,a711 --> 39,a712 --> 704,a713 --> 396,a714 --> 610,a715 --> 781,a716 --> 796,a717 --> 582,a718 --> 383,a719 --> 633,a720 --> 364,a721 --> 354,a722 --> 408,a723 --> 986,a724 --> 428,a725 --> 922,a726 --> 720,a727 --> 429,a728 --> 743,a729 --> 24,a730 --> 838,a731 --> 342,a732 --> 423,a733 --> 875,a734 --> 442,a735 --> 498,a736 --> 282,a737 --> 730,a738 --> 629,a739 --> 819,a740 --> 453,a741 --> 318,a742 --> 637,a743 --> 283,a744 --> 781,a745 --> 644,a746 --> 254,a747 --> 543,a748 --> 689,a749 --> 665,a750 --> 993,a751 --> 253,a752 --> 177,a753 --> 739,a754 --> 504,a755 --> 814,a756 --> 873,a757 --> 214,a758 --> 255,a759 --> 940,a760 --> 982,a761 --> 500,a762 --> 989,a763 --> 692,a764 --> 119,a765 --> 979,a766 --> 752,a767 --> 917,a768 --> 205,a769 --> 459,a770 --> 884,a771 --> 775,a772 --> 51,a773 --> 949,a774 --> 988,a775 --> 781,a776 --> 878,a777 --> 140,a778 --> 263,a779 --> 762,a780 --> 109,a781 --> 679,a782 --> 268,a783 --> 719,a784 --> 313,a785 --> 189,a786 --> 141,a787 --> 91,a788 --> 958,a789 --> 783,a790 --> 407,a791 --> 1,a792 --> 504,a793 --> 664,a794 --> 912,a795 --> 869,a796 --> 614,a797 --> 936,a798 --> 568,a799 --> 358,a800 --> 626,a801 --> 828,a802 --> 32,a803 --> 453,a804 --> 727,a805 --> 647,a806 --> 717,a807 --> 244,a808 --> 801,a809 --> 445,a810 --> 325,a811 --> 968,a812 --> 616,a813 --> 994,a814 --> 376,a815 --> 591,a816 --> 148,a817 --> 638,a818 --> 232,a819 --> 450,a820 --> 201,a821 --> 907,a822 --> 57,a823 --> 876,a824 --> 117,a825 --> 325,a826 --> 681,a827 --> 984,a828 --> 973,a829 --> 48,a830 --> 200,a831 --> 54,a832 --> 227,a833 --> 150,a834 --> 665,a835 --> 686,a836 --> 594,a837 --> 94,a838 --> 943,a839 --> 994,a840 --> 511,a841 --> 349,a842 --> 600,a843 --> 80,a844 --> 114,a845 --> 520,a846 --> 229,a847 --> 334,a848 --> 914,a849 --> 647,a850 --> 575,a851 --> 252,a852 --> 380,a853 --> 948,a854 --> 315,a855 --> 725,a856 --> 981,a857 --> 913,a858 --> 670,a859 --> 141,a860 --> 930,a861 --> 965,a862 --> 394,a863 --> 763,a864 --> 751,a865 --> 319,a866 --> 391,a867 --> 432,a868 --> 412,a869 --> 65,a870 --> 890,a871 --> 966,a872 --> 369,a873 --> 798,a874 --> 48,a875 --> 98,a876 --> 875,a877 --> 155,a878 --> 707,a879 --> 162,a880 --> 964,a881 --> 753,a882 --> 204,a883 --> 407,a884 --> 862,a885 --> 217,a886 --> 414,a887 --> 532,a888 --> 608,a889 --> 270,a890 --> 161,a891 --> 580,a892 --> 543,a893 --> 150,a894 --> 412,a895 --> 895,a896 --> 206,a897 --> 273,a898 --> 522,a899 --> 245,a900 --> 382,a901 --> 336,a902 --> 526,a903 --> 449,a904 --> 645,a905 --> 70,a906 --> 782,a907 --> 591,a908 --> 587,a909 --> 2,a910 --> 130,a911 --> 45,a912 --> 128,a913 --> 619,a914 --> 989,a915 --> 541,a916 --> 151,a917 --> 986,a918 --> 211,a919 --> 889,a920 --> 590,a921 --> 171,a922 --> 737,a923 --> 973,a924 --> 227,a925 --> 747,a926 --> 208,a927 --> 497,a928 --> 256,a929 --> 299,a930 --> 434,a931 --> 292,a932 --> 439,a933 --> 979,a934 --> 523,a935 --> 673,a936 --> 709,a937 --> 63,a938 --> 920,a939 --> 149,a940 --> 147,a941 --> 861,a942 --> 899,a943 --> 78,a944 --> 808,a945 --> 860,a946 --> 940,a947 --> 525,a948 --> 400,a949 --> 591,a950 --> 897,a951 --> 340,a952 --> 183,a953 --> 823,a954 --> 950,a955 --> 337,a956 --> 822,a957 --> 876,a958 --> 629,a959 --> 257,a960 --> 949,a961 --> 964,a962 --> 432,a963 --> 405,a964 --> 278,a965 --> 922,a966 --> 73,a967 --> 911,a968 --> 64,a969 --> 704,a970 --> 416,a971 --> 757,a972 --> 641,a973 --> 756,a974 --> 676,a975 --> 365,a976 --> 506,a977 --> 782,a978 --> 40,a979 --> 335,a980 --> 719,a981 --> 504,a982 --> 976,a983 --> 694,a984 --> 396,a985 --> 92,a986 --> 601,a987 --> 206,a988 --> 864,a989 --> 25,a990 --> 355,a991 --> 319,a992 --> 413,a993 --> 254,a994 --> 634,a995 --> 872,a996 --> 717,a997 --> 293,a998 --> 728,a999 --> 300,a1000 --> 542
)
letting gain be function (
a1 --> 942,a2 --> 1120,a3 --> 516,a4 --> 671,a5 --> 678,a6 --> 970,a7 --> 578,a8 --> 972,a9 --> 830,a10 --> 1151,a11 --> 1143,a12 --> 162,a13 --> 784,a14 --> 1077,a15 --> 380,a16 --> 977,a17 --> 537,a18 --> 858,a19 --> 1005,a20 --> 103,a21 --> 687,a22 --> 750,a23 --> 860,a24 --> 928,a25 --> 1009,a26 --> 868,a27 --> 803,a28 --> 905,a29 --> 695,a30 --> 1120,a31 --> 779,a32 --> 1022,a33 --> 373,a34 --> 1126,a35 --> 952,a36 --> 604,a37 --> 588,a38 --> 1146,a39 --> 1003,a40 --> 1115,a41 --> 930,a42 --> 1149,a43 --> 479,a44 --> 884,a45 --> 332,a46 --> 1125,a47 --> 1097,a48 --> 1119,a49 --> 560,a50 --> 230,a51 --> 1130,a52 --> 865,a53 --> 601,a54 --> 807,a55 --> 1154,a56 --> 877,a57 --> 820,a58 --> 925,a59 --> 399,a60 --> 579,a61 --> 817,a62 --> 1012,a63 --> 678,a64 --> 794,a65 --> 966,a66 --> 1029,a67 --> 711,a68 --> 1101,a69 --> 1097,a70 --> 909,a71 --> 1103,a72 --> 709,a73 --> 685,a74 --> 861,a75 --> 539,a76 --> 791,a77 --> 741,a78 --> 126,a79 --> 188,a80 --> 1106,a81 --> 670,a82 --> 1042,a83 --> 801,a84 --> 1014,a85 --> 1124,a86 --> 210,a87 --> 1005,a88 --> 916,a89 --> 534,a90 --> 656,a91 --> 531,a92 --> 1016,a93 --> 945,a94 --> 841,a95 --> 558,a96 --> 501,a97 --> 1057,a98 --> 251,a99 --> 530,a100 --> 764,a101 --> 511,a102 --> 615,a103 --> 1070,a104 --> 993,a105 --> 1095,a106 --> 1049,a107 --> 1146,a108 --> 151,a109 --> 1012,a110 --> 1099,a111 --> 1153,a112 --> 1051,a113 --> 543,a114 --> 1056,a115 --> 829,a116 --> 504,a117 --> 352,a118 --> 393,a119 --> 855,a120 --> 474,a121 --> 915,a122 --> 1012,a123 --> 958,a124 --> 943,a125 --> 628,a126 --> 1105,a127 --> 524,a128 --> 912,a129 --> 447,a130 --> 192,a131 --> 972,a132 --> 956,a133 --> 905,a134 --> 1017,a135 --> 889,a136 --> 302,a137 --> 724,a138 --> 868,a139 --> 868,a140 --> 1025,a141 --> 620,a142 --> 848,a143 --> 1027,a144 --> 364,a145 --> 552,a146 --> 445,a147 --> 598,a148 --> 921,a149 --> 911,a150 --> 816,a151 --> 876,a152 --> 162,a153 --> 1153,a154 --> 1097,a155 --> 952,a156 --> 938,a157 --> 1000,a158 --> 848,a159 --> 800,a160 --> 1117,a161 --> 989,a162 --> 757,a163 --> 1055,a164 --> 752,a165 --> 401,a166 --> 804,a167 --> 809,a168 --> 962,a169 --> 1141,a170 --> 1119,a171 --> 890,a172 --> 729,a173 --> 895,a174 --> 1065,a175 --> 795,a176 --> 1001,a177 --> 636,a178 --> 420,a179 --> 1038,a180 --> 963,a181 --> 1093,a182 --> 895,a183 --> 864,a184 --> 960,a185 --> 1147,a186 --> 780,a187 --> 624,a188 --> 1064,a189 --> 710,a190 --> 816,a191 --> 1044,a192 --> 334,a193 --> 998,a194 --> 869,a195 --> 1148,a196 --> 513,a197 --> 1011,a198 --> 1142,a199 --> 1010,a200 --> 1101,a201 --> 1137,a202 --> 845,a203 --> 399,a204 --> 993,a205 --> 898,a206 --> 950,a207 --> 622,a208 --> 1028,a209 --> 1136,a210 --> 1037,a211 --> 1059,a212 --> 449,a213 --> 752,a214 --> 1139,a215 --> 949,a216 --> 1058,a217 --> 799,a218 --> 724,a219 --> 1130,a220 --> 627,a221 --> 791,a222 --> 1023,a223 --> 1145,a224 --> 449,a225 --> 1139,a226 --> 1017,a227 --> 1054,a228 --> 368,a229 --> 241,a230 --> 304,a231 --> 652,a232 --> 849,a233 --> 904,a234 --> 1145,a235 --> 844,a236 --> 685,a237 --> 701,a238 --> 790,a239 --> 271,a240 --> 910,a241 --> 952,a242 --> 1036,a243 --> 472,a244 --> 1093,a245 --> 847,a246 --> 901,a247 --> 1078,a248 --> 938,a249 --> 707,a250 --> 906,a251 --> 896,a252 --> 214,a253 --> 1022,a254 --> 750,a255 --> 1042,a256 --> 384,a257 --> 1089,a258 --> 962,a259 --> 1017,a260 --> 672,a261 --> 629,a262 --> 772,a263 --> 391,a264 --> 572,a265 --> 1086,a266 --> 557,a267 --> 1088,a268 --> 1081,a269 --> 1014,a270 --> 1031,a271 --> 1123,a272 --> 963,a273 --> 723,a274 --> 699,a275 --> 918,a276 --> 574,a277 --> 640,a278 --> 1040,a279 --> 656,a280 --> 938,a281 --> 503,a282 --> 956,a283 --> 919,a284 --> 1100,a285 --> 1010,a286 --> 884,a287 --> 1086,a288 --> 441,a289 --> 590,a290 --> 849,a291 --> 1141,a292 --> 938,a293 --> 761,a294 --> 947,a295 --> 610,a296 --> 139,a297 --> 287,a298 --> 321,a299 --> 356,a300 --> 956,a301 --> 1128,a302 --> 777,a303 --> 1125,a304 --> 1063,a305 --> 930,a306 --> 931,a307 --> 656,a308 --> 667,a309 --> 947,a310 --> 684,a311 --> 1123,a312 --> 610,a313 --> 1141,a314 --> 956,a315 --> 1132,a316 --> 810,a317 --> 463,a318 --> 601,a319 --> 940,a320 --> 714,a321 --> 1032,a322 --> 756,a323 --> 831,a324 --> 490,a325 --> 927,a326 --> 1148,a327 --> 549,a328 --> 1111,a329 --> 888,a330 --> 597,a331 --> 388,a332 --> 1148,a333 --> 462,a334 --> 772,a335 --> 1137,a336 --> 329,a337 --> 1066,a338 --> 1045,a339 --> 1055,a340 --> 1134,a341 --> 696,a342 --> 1130,a343 --> 380,a344 --> 490,a345 --> 885,a346 --> 1042,a347 --> 1021,a348 --> 878,a349 --> 807,a350 --> 1065,a351 --> 1086,a352 --> 524,a353 --> 386,a354 --> 463,a355 --> 1107,a356 --> 1103,a357 --> 361,a358 --> 993,a359 --> 382,a360 --> 1107,a361 --> 1076,a362 --> 1002,a363 --> 1001,a364 --> 1128,a365 --> 744,a366 --> 1023,a367 --> 1131,a368 --> 1084,a369 --> 859,a370 --> 268,a371 --> 905,a372 --> 1081,a373 --> 133,a374 --> 519,a375 --> 982,a376 --> 1031,a377 --> 904,a378 --> 428,a379 --> 469,a380 --> 1051,a381 --> 919,a382 --> 352,a383 --> 1136,a384 --> 812,a385 --> 971,a386 --> 1040,a387 --> 873,a388 --> 1146,a389 --> 925,a390 --> 552,a391 --> 1017,a392 --> 983,a393 --> 616,a394 --> 852,a395 --> 998,a396 --> 1124,a397 --> 765,a398 --> 1140,a399 --> 522,a400 --> 205,a401 --> 567,a402 --> 1020,a403 --> 454,a404 --> 900,a405 --> 879,a406 --> 1145,a407 --> 1084,a408 --> 1059,a409 --> 1081,a410 --> 860,a411 --> 1010,a412 --> 188,a413 --> 1063,a414 --> 800,a415 --> 758,a416 --> 1057,a417 --> 434,a418 --> 955,a419 --> 839,a420 --> 927,a421 --> 861,a422 --> 940,a423 --> 691,a424 --> 913,a425 --> 1142,a426 --> 1131,a427 --> 230,a428 --> 1098,a429 --> 1068,a430 --> 1047,a431 --> 696,a432 --> 281,a433 --> 640,a434 --> 812,a435 --> 923,a436 --> 183,a437 --> 1056,a438 --> 684,a439 --> 1009,a440 --> 747,a441 --> 1151,a442 --> 1026,a443 --> 732,a444 --> 1150,a445 --> 1090,a446 --> 666,a447 --> 1105,a448 --> 716,a449 --> 934,a450 --> 1062,a451 --> 781,a452 --> 604,a453 --> 1061,a454 --> 1056,a455 --> 520,a456 --> 770,a457 --> 747,a458 --> 1035,a459 --> 888,a460 --> 688,a461 --> 439,a462 --> 572,a463 --> 970,a464 --> 832,a465 --> 940,a466 --> 408,a467 --> 721,a468 --> 496,a469 --> 933,a470 --> 920,a471 --> 899,a472 --> 674,a473 --> 628,a474 --> 188,a475 --> 934,a476 --> 911,a477 --> 1044,a478 --> 1115,a479 --> 619,a480 --> 581,a481 --> 598,a482 --> 672,a483 --> 912,a484 --> 912,a485 --> 770,a486 --> 914,a487 --> 787,a488 --> 1140,a489 --> 1121,a490 --> 481,a491 --> 811,a492 --> 73,a493 --> 549,a494 --> 1095,a495 --> 940,a496 --> 808,a497 --> 839,a498 --> 714,a499 --> 739,a500 --> 1095,a501 --> 1114,a502 --> 777,a503 --> 318,a504 --> 1139,a505 --> 1023,a506 --> 756,a507 --> 271,a508 --> 989,a509 --> 476,a510 --> 728,a511 --> 878,a512 --> 732,a513 --> 326,a514 --> 1138,a515 --> 925,a516 --> 1152,a517 --> 917,a518 --> 1125,a519 --> 1101,a520 --> 1056,a521 --> 956,a522 --> 956,a523 --> 962,a524 --> 895,a525 --> 878,a526 --> 818,a527 --> 996,a528 --> 920,a529 --> 951,a530 --> 445,a531 --> 1150,a532 --> 840,a533 --> 197,a534 --> 995,a535 --> 620,a536 --> 1002,a537 --> 868,a538 --> 984,a539 --> 993,a540 --> 830,a541 --> 956,a542 --> 503,a543 --> 1037,a544 --> 966,a545 --> 761,a546 --> 1139,a547 --> 1131,a548 --> 1052,a549 --> 310,a550 --> 884,a551 --> 1086,a552 --> 1153,a553 --> 852,a554 --> 887,a555 --> 554,a556 --> 613,a557 --> 644,a558 --> 860,a559 --> 680,a560 --> 683,a561 --> 1058,a562 --> 552,a563 --> 932,a564 --> 183,a565 --> 958,a566 --> 1150,a567 --> 1104,a568 --> 577,a569 --> 1013,a570 --> 1064,a571 --> 984,a572 --> 546,a573 --> 651,a574 --> 1064,a575 --> 479,a576 --> 1044,a577 --> 555,a578 --> 732,a579 --> 1107,a580 --> 833,a581 --> 1017,a582 --> 1135,a583 --> 825,a584 --> 938,a585 --> 1150,a586 --> 1081,a587 --> 666,a588 --> 672,a589 --> 103,a590 --> 1137,a591 --> 870,a592 --> 205,a593 --> 310,a594 --> 856,a595 --> 414,a596 --> 906,a597 --> 1034,a598 --> 957,a599 --> 454,a600 --> 1110,a601 --> 1148,a602 --> 914,a603 --> 1138,a604 --> 744,a605 --> 1091,a606 --> 1060,a607 --> 921,a608 --> 972,a609 --> 907,a610 --> 329,a611 --> 111,a612 --> 879,a613 --> 659,a614 --> 377,a615 --> 821,a616 --> 516,a617 --> 94,a618 --> 629,a619 --> 857,a620 --> 914,a621 --> 967,a622 --> 511,a623 --> 925,a624 --> 454,a625 --> 1058,a626 --> 929,a627 --> 961,a628 --> 1057,a629 --> 720,a630 --> 749,a631 --> 506,a632 --> 555,a633 --> 598,a634 --> 780,a635 --> 1036,a636 --> 1020,a637 --> 551,a638 --> 1081,a639 --> 609,a640 --> 1141,a641 --> 388,a642 --> 662,a643 --> 1008,a644 --> 471,a645 --> 824,a646 --> 939,a647 --> 1101,a648 --> 119,a649 --> 447,a650 --> 339,a651 --> 313,a652 --> 424,a653 --> 451,a654 --> 1125,a655 --> 998,a656 --> 647,a657 --> 593,a658 --> 878,a659 --> 414,a660 --> 1128,a661 --> 629,a662 --> 1032,a663 --> 1007,a664 --> 911,a665 --> 119,a666 --> 1136,a667 --> 688,a668 --> 921,a669 --> 705,a670 --> 524,a671 --> 1134,a672 --> 940,a673 --> 957,a674 --> 840,a675 --> 1101,a676 --> 1063,a677 --> 1040,a678 --> 1145,a679 --> 1034,a680 --> 871,a681 --> 857,a682 --> 1106,a683 --> 999,a684 --> 1151,a685 --> 265,a686 --> 1131,a687 --> 964,a688 --> 1047,a689 --> 841,a690 --> 1120,a691 --> 821,a692 --> 797,a693 --> 1101,a694 --> 1079,a695 --> 491,a696 --> 824,a697 --> 1013,a698 --> 857,a699 --> 681,a700 --> 965,a701 --> 601,a702 --> 975,a703 --> 619,a704 --> 488,a705 --> 1054,a706 --> 844,a707 --> 1145,a708 --> 1132,a709 --> 1013,a710 --> 845,a711 --> 262,a712 --> 1015,a713 --> 796,a714 --> 958,a715 --> 1057,a716 --> 1064,a717 --> 940,a718 --> 784,a719 --> 973,a720 --> 766,a721 --> 757,a722 --> 807,a723 --> 1149,a724 --> 824,a725 --> 1123,a726 --> 1024,a727 --> 825,a728 --> 1037,a729 --> 205,a730 --> 1085,a731 --> 745,a732 --> 820,a733 --> 1102,a734 --> 836,a735 --> 880,a736 --> 682,a737 --> 1030,a738 --> 970,a739 --> 1076,a740 --> 845,a741 --> 721,a742 --> 975,a743 --> 683,a744 --> 1057,a745 --> 980,a746 --> 650,a747 --> 913,a748 --> 1006,a749 --> 992,a750 --> 1151,a751 --> 649,a752 --> 548,a753 --> 1034,a754 --> 884,a755 --> 1073,a756 --> 1101,a757 --> 600,a758 --> 651,a759 --> 1130,a760 --> 1147,a761 --> 881,a762 --> 1150,a763 --> 1008,a764 --> 453,a765 --> 1146,a766 --> 1041,a767 --> 1120,a768 --> 588,a769 --> 849,a770 --> 1106,a771 --> 1053,a772 --> 299,a773 --> 1134,a774 --> 1150,a775 --> 1057,a776 --> 1103,a777 --> 490,a778 --> 660,a779 --> 1047,a780 --> 434,a781 --> 1001,a782 --> 666,a783 --> 1023,a784 --> 716,a785 --> 565,a786 --> 491,a787 --> 397,a788 --> 1138,a789 --> 1058,a790 --> 806,a791 --> 42,a792 --> 884,a793 --> 992,a794 --> 1118,a795 --> 1099,a796 --> 961,a797 --> 1128,a798 --> 930,a799 --> 761,a800 --> 968,a801 --> 1080,a802 --> 237,a803 --> 845,a804 --> 1028,a805 --> 981,a806 --> 1022,a807 --> 638,a808 --> 1067,a809 --> 838,a810 --> 728,a811 --> 1142,a812 --> 962,a813 --> 1152,a814 --> 778,a815 --> 946,a816 --> 503,a817 --> 976,a818 --> 623,a819 --> 842,a820 --> 582,a821 --> 1116,a822 --> 316,a823 --> 1102,a824 --> 449,a825 --> 728,a826 --> 1002,a827 --> 1148,a828 --> 1144,a829 --> 290,a830 --> 581,a831 --> 307,a832 --> 616,a833 --> 506,a834 --> 992,a835 --> 1005,a836 --> 948,a837 --> 403,a838 --> 1131,a839 --> 1152,a840 --> 890,a841 --> 752,a842 --> 952,a843 --> 373,a844 --> 443,a845 --> 896,a846 --> 619,a847 --> 737,a848 --> 1119,a849 --> 981,a850 --> 935,a851 --> 647,a852 --> 781,a853 --> 1133,a854 --> 718,a855 --> 1027,a856 --> 1147,a857 --> 1119,a858 --> 995,a859 --> 491,a860 --> 1126,a861 --> 1140,a862 --> 794,a863 --> 1047,a864 --> 1041,a865 --> 722,a866 --> 791,a867 --> 827,a868 --> 810,a869 --> 337,a870 --> 1109,a871 --> 1141,a872 --> 771,a873 --> 1065,a874 --> 290,a875 --> 412,a876 --> 1102,a877 --> 514,a878 --> 1017,a879 --> 525,a880 --> 1140,a881 --> 1042,a882 --> 586,a883 --> 806,a884 --> 1096,a885 --> 604,a886 --> 812,a887 --> 905,a888 --> 957,a889 --> 669,a890 --> 524,a891 --> 938,a892 --> 913,a893 --> 506,a894 --> 810,a895 --> 1111,a896 --> 589,a897 --> 672,a898 --> 898,a899 --> 639,a900 --> 783,a901 --> 739,a902 --> 901,a903 --> 841,a904 --> 980,a905 --> 349,a906 --> 1057,a907 --> 946,a908 --> 943,a909 --> 59,a910 --> 472,a911 --> 281,a912 --> 469,a913 --> 964,a914 --> 1150,a915 --> 911,a916 --> 508,a917 --> 1149,a918 --> 596,a919 --> 1108,a920 --> 945,a921 --> 539,a922 --> 1033,a923 --> 1144,a924 --> 616,a925 --> 1039,a926 --> 592,a927 --> 879,a928 --> 652,a929 --> 701,a930 --> 829,a931 --> 693,a932 --> 833,a933 --> 1146,a934 --> 899,a935 --> 997,a936 --> 1018,a937 --> 332,a938 --> 1122,a939 --> 504,a940 --> 501,a941 --> 1095,a942 --> 1113,a943 --> 368,a944 --> 1070,a945 --> 1095,a946 --> 1130,a947 --> 900,a948 --> 800,a949 --> 946,a950 --> 1112,a951 --> 743,a952 --> 557,a953 --> 1077,a954 --> 1134,a955 --> 740,a956 --> 1077,a957 --> 1102,a958 --> 970,a959 --> 653,a960 --> 1134,a961 --> 1140,a962 --> 827,a963 --> 804,a964 --> 678,a965 --> 1123,a966 --> 356,a967 --> 1118,a968 --> 334,a969 --> 1015,a970 --> 814,a971 --> 1044,a972 --> 978,a973 --> 1044,a974 --> 999,a975 --> 767,a976 --> 886,a977 --> 1057,a978 --> 265,a979 --> 738,a980 --> 1023,a981 --> 884,a982 --> 1145,a983 --> 1009,a984 --> 796,a985 --> 399,a986 --> 952,a987 --> 589,a988 --> 1097,a989 --> 210,a990 --> 758,a991 --> 722,a992 --> 811,a993 --> 650,a994 --> 973,a995 --> 1101,a996 --> 1022,a997 --> 694,a998 --> 1028,a999 --> 702,a1000 --> 912
)
